/*********************************************
 * OPL 12.6.0.0 Data
 * Author: sarkara1
 * Creation Date: Feb 7, 2017 at 12:37:59 PM
 *********************************************/
N = 5;
P = [3,3,3,3,3];
R = [0,1,2,3,4];
D = [5,8,7,7,6];
W = [1,3,7,16,33];